NAME : kroD100-R-3-1-a.27734.tour
COMMENT : Length = 27734
COMMENT : Found by LKH-3 [Keld Helsgaun] Tue Jul 30 13:14:56 2024
TYPE : TOUR
DIMENSION : 100
TOUR_SECTION
1
13
79
88
27
24
41
73
39
71
54
63
15
69
46
52
8
66
34
11
17
90
89
42
22
36
67
75
7
74
61
78
65
86
82
25
20
10
21
47
12
28
56
95
26
87
55
5
53
60
62
37
35
30
100
51
19
2
48
92
9
3
83
40
6
18
85
59
64
44
93
4
43
77
91
16
96
14
68
33
45
99
31
57
72
76
80
84
81
38
23
29
58
70
49
98
97
32
94
50
-1
EOF
